Route #1: 12 45 52 22 54 55 15 56 58
Route #2: 13 28 5 21 25 63
Route #3: 48 9 34 6 36 4 46
Route #4: 53 44 40 64 42 39
Route #5: 60 3 57 30 61 62
Route #6: 14 35 1 49 11 50
Route #7: 19 20 7 29 24 59
Route #8: 65 37 23 8 32 51
Route #9: 17 38 10 27 43 16 41 66
Route #10: 31 18 26 2 47 33
Cost 1107